SimulationType                MonteCarlo
NumberOfCycles                20000
NumberOfInitializationCycles  10000
PrintEvery                    5000
RestartFile                   no

Forcefield                    ExampleMOFsForceField

Framework 0
FrameworkName Cu-BTC
UnitCells 1 1 1
ExternalTemperature 323.0
ExternalPressure 0.1e5

Component 0 MoleculeName             CO2
            MoleculeDefinition       ExampleDefinitions
            FugacityCoefficient      1.0
            TranslationProbability   0.5
            RotationProbability      0.5
            ReinsertionProbability   0.5
            SwapProbability          1.0
            CreateNumberOfMolecules  0

